(set-logic QF_SLAH)

(declare-datatypes ((data_t 0)) (((c_data_t (sz Int)))))

(declare-heap (Int data_t))

(define-fun hck ((?x Int) (?y Int) (?v Int)) Bool
	(and
		(>= (- ?y ?x) 2) (<= (- ?y ?x) ?v)
		(sep (pto ?x (c_data_t (- ?y ?x))) (blk (+ ?x 1) ?y))
))

(define-fun-rec hls ((?x Int) (?y Int) (?v Int)) Bool
	(or
		(and (= ?x ?y) (_ emp Int data_t))
		(exists ((?w Int)) (sep (hck ?x ?w ?v) (hls ?w ?y ?v)))
))

(declare-const x0 Int)
(declare-const x1 Int)
(declare-const x2 Int)
(declare-const x3 Int)
(declare-const x4 Int)
(declare-const x5 Int)
(declare-const x6 Int)
(declare-const x7 Int)
(declare-const x8 Int)
(declare-const x9 Int)
(declare-const x10 Int)
(declare-const x11 Int)
(declare-const v10 Int)
(declare-const x12 Int)
(declare-const x13 Int)
(declare-const x14 Int)
(declare-const x15 Int)
(declare-const x16 Int)
(declare-const x17 Int)
(declare-const x18 Int)
(declare-const x19 Int)
(declare-const x20 Int)
(declare-const x21 Int)
(declare-const x22 Int)
(declare-const x23 Int)
(declare-const v22 Int)
(declare-const x24 Int)
(declare-const x25 Int)
(declare-const x26 Int)
(declare-const x27 Int)
(declare-const x28 Int)
(declare-const x29 Int)
(declare-const x30 Int)
(declare-const x31 Int)
(declare-const v30 Int)
(declare-const x32 Int)
(declare-const x33 Int)
(declare-const x34 Int)
(declare-const x35 Int)
(declare-const x36 Int)
(declare-const x37 Int)
(declare-const x38 Int)
(declare-const x39 Int)
(declare-const v38 Int)
(declare-const x40 Int)
(declare-const x41 Int)
(declare-const v40 Int)
(declare-const x42 Int)
(declare-const x43 Int)
(declare-const x44 Int)
(declare-const x45 Int)
(declare-const v44 Int)
(declare-const x46 Int)
(declare-const x47 Int)
(declare-const x48 Int)
(declare-const x49 Int)
(declare-const v48 Int)
(declare-const x50 Int)
(declare-const x51 Int)
(declare-const v50 Int)
(declare-const x52 Int)
(declare-const x53 Int)
(declare-const x54 Int)
(declare-const x55 Int)
(declare-const v54 Int)
(declare-const x56 Int)
(declare-const x57 Int)
(declare-const x58 Int)
(declare-const x59 Int)
(declare-const v58 Int)
(declare-const x60 Int)
(declare-const x61 Int)
(declare-const x62 Int)
(declare-const x63 Int)
(declare-const v62 Int)
(declare-const x64 Int)
(declare-const x65 Int)
(declare-const x66 Int)
(declare-const x67 Int)
(declare-const v66 Int)
(declare-const x68 Int)
(declare-const x69 Int)
(declare-const v68 Int)
(declare-const x70 Int)
(declare-const x71 Int)
(declare-const x72 Int)
(declare-const x73 Int)
(declare-const v72 Int)
(declare-const x74 Int)
(declare-const x75 Int)
(declare-const x76 Int)
(declare-const x77 Int)
(declare-const x78 Int)
(declare-const x79 Int)
(declare-const x80 Int)
(declare-const x81 Int)
(declare-const x82 Int)
(declare-const x83 Int)
(declare-const x84 Int)
(declare-const x85 Int)
(declare-const v84 Int)
(declare-const x86 Int)
(declare-const x87 Int)
(declare-const x88 Int)
(declare-const x89 Int)
(declare-const v88 Int)
(declare-const x90 Int)
(declare-const x91 Int)
(declare-const x92 Int)
(declare-const x93 Int)
(declare-const x94 Int)
(declare-const x95 Int)
(declare-const x96 Int)
(declare-const x97 Int)
(declare-const v96 Int)
(declare-const x98 Int)
(declare-const x99 Int)
(declare-const v98 Int)
(declare-const x100 Int)
(declare-const x101 Int)
(declare-const v100 Int)
(declare-const x102 Int)
(declare-const x103 Int)
(declare-const x104 Int)
(declare-const x105 Int)
(declare-const x106 Int)
(declare-const x107 Int)
(declare-const x108 Int)
(declare-const x109 Int)
(declare-const x110 Int)
(declare-const x111 Int)
(declare-const v110 Int)
(declare-const x112 Int)
(declare-const x113 Int)
(declare-const x114 Int)
(declare-const x115 Int)
(declare-const x116 Int)
(declare-const x117 Int)
(declare-const x118 Int)
(declare-const x119 Int)
(declare-const x120 Int)
(declare-const x121 Int)
(declare-const v120 Int)
(declare-const x122 Int)
(declare-const x123 Int)
(declare-const v122 Int)
(declare-const x124 Int)
(declare-const x125 Int)
(declare-const x126 Int)
(declare-const x127 Int)
(declare-const x128 Int)
(declare-const x129 Int)
(declare-const v128 Int)
(declare-const x130 Int)
(declare-const x131 Int)
(declare-const x132 Int)
(declare-const x133 Int)
(declare-const x134 Int)
(declare-const x135 Int)
(declare-const x136 Int)
(declare-const x137 Int)
(declare-const x138 Int)
(declare-const x139 Int)
(declare-const x140 Int)
(declare-const x141 Int)
(declare-const v140 Int)
(declare-const x142 Int)
(declare-const x143 Int)
(declare-const x144 Int)
(declare-const x145 Int)
(declare-const x146 Int)
(declare-const x147 Int)
(declare-const v146 Int)
(declare-const x148 Int)
(declare-const x149 Int)
(declare-const x150 Int)
(declare-const x151 Int)
(declare-const v150 Int)
(declare-const x152 Int)
(declare-const x153 Int)
(declare-const v152 Int)
(declare-const x154 Int)
(declare-const x155 Int)
(declare-const x156 Int)
(declare-const x157 Int)
(declare-const x158 Int)
(declare-const x159 Int)
(declare-const x160 Int)
(declare-const x161 Int)
(declare-const x162 Int)
(declare-const x163 Int)
(declare-const v162 Int)
(declare-const x164 Int)
(declare-const x165 Int)
(declare-const v164 Int)
(declare-const x166 Int)
(declare-const x167 Int)
(declare-const x168 Int)
(declare-const x169 Int)
(declare-const x170 Int)
(declare-const x171 Int)
(declare-const x172 Int)
(declare-const x173 Int)
(declare-const x174 Int)
(declare-const x175 Int)
(declare-const x176 Int)
(declare-const x177 Int)
(declare-const x178 Int)
(declare-const x179 Int)
(declare-const v178 Int)
(declare-const x180 Int)
(declare-const x181 Int)
(declare-const v180 Int)
(declare-const x182 Int)
(declare-const x183 Int)
(declare-const x184 Int)
(declare-const x185 Int)
(declare-const x186 Int)
(declare-const x187 Int)
(declare-const x188 Int)
(declare-const x189 Int)
(declare-const x190 Int)
(declare-const x191 Int)
(declare-const v190 Int)
(declare-const x192 Int)
(declare-const x193 Int)
(declare-const x194 Int)
(declare-const x195 Int)
(declare-const x196 Int)
(declare-const x197 Int)
(declare-const x198 Int)
(declare-const x199 Int)

(assert(and
(distinct x61 x35) (< x128 x157) (< x2 x156) (distinct x101 x158) (= x93 x98) (= x130 x37) (< x94 x24) (distinct x96 x104) 
(sep
(pto x0 (c_data_t x1))
(blk x2 x3)
(pto x4 (c_data_t x5))
(blk x6 x7)
(pto x8 (c_data_t x9))
(hls x10 x11 v10)
(pto x12 (c_data_t x13))
(blk x14 x15)
(blk x16 x17)
(pto x18 (c_data_t x19))
(blk x20 x21)
(hls x22 x23 v22)
(blk x24 x25)
(pto x26 (c_data_t x27))
(blk x28 x29)
(hls x30 x31 v30)
(pto x32 (c_data_t x33))
(pto x34 (c_data_t x35))
(blk x36 x37)
(hls x38 x39 v38)
(hls x40 x41 v40)
(blk x42 x43)
(hls x44 x45 v44)
(pto x46 (c_data_t x47))
(hls x48 x49 v48)
(hls x50 x51 v50)
(pto x52 (c_data_t x53))
(hls x54 x55 v54)
(pto x56 (c_data_t x57))
(hls x58 x59 v58)
(blk x60 x61)
(hls x62 x63 v62)
(pto x64 (c_data_t x65))
(hls x66 x67 v66)
(hls x68 x69 v68)
(blk x70 x71)
(hls x72 x73 v72)
(blk x74 x75)
(blk x76 x77)
(blk x78 x79)
(pto x80 (c_data_t x81))
(pto x82 (c_data_t x83))
(hls x84 x85 v84)
(blk x86 x87)
(hls x88 x89 v88)
(blk x90 x91)
(blk x92 x93)
(pto x94 (c_data_t x95))
(hls x96 x97 v96)
(hls x98 x99 v98)
(hls x100 x101 v100)
(blk x102 x103)
(blk x104 x105)
(blk x106 x107)
(blk x108 x109)
(hls x110 x111 v110)
(blk x112 x113)
(pto x114 (c_data_t x115))
(pto x116 (c_data_t x117))
(pto x118 (c_data_t x119))
(hls x120 x121 v120)
(hls x122 x123 v122)
(pto x124 (c_data_t x125))
(blk x126 x127)
(hls x128 x129 v128)
(blk x130 x131)
(blk x132 x133)
(pto x134 (c_data_t x135))
(blk x136 x137)
(blk x138 x139)
(hls x140 x141 v140)
(pto x142 (c_data_t x143))
(pto x144 (c_data_t x145))
(hls x146 x147 v146)
(pto x148 (c_data_t x149))
(hls x150 x151 v150)
(hls x152 x153 v152)
(pto x154 (c_data_t x155))
(blk x156 x157)
(blk x158 x159)
(blk x160 x161)
(hls x162 x163 v162)
(hls x164 x165 v164)
(pto x166 (c_data_t x167))
(blk x168 x169)
(blk x170 x171)
(blk x172 x173)
(blk x174 x175)
(blk x176 x177)
(hls x178 x179 v178)
(hls x180 x181 v180)
(pto x182 (c_data_t x183))
(blk x184 x185)
(pto x186 (c_data_t x187))
(blk x188 x189)
(hls x190 x191 v190)
(blk x192 x193)
(blk x194 x195)
(pto x196 (c_data_t x197))
(pto x198 (c_data_t x199))
)))

(check-sat)